data;

param n:=22;
param p:=3;
param r:=[1] 0 [2] 1 [3] 3 [4] 2 [5] 8 [6] 11 [7] 2 [8] 3 [9] 5 [10] 17 [11] 13 [12] 13 [13] 31 [14] 4 [15] 13 [16] 9 [17] 19 [18] 33 [19] 51 [20] 48 [21] 33 [22] 54 ;
param w:=[1] 83 [2] 85 [3] 41 [4] 14 [5] 75 [6] 70 [7] 92 [8] 3 [9] 28 [10] 28 [11] 91 [12] 70 [13] 95 [14] 79 [15] 33 [16] 39 [17] 74 [18] 71 [19] 28 [20] 80 [21] 22 [22] 20 ;

end;
